p cnf 23 8
a 1 2 3 0
e 4 0
a 5 0
e 6 7 0
a 8 9 10 0
e 11 0
a 12 0
e 13 14 15 0
a 16 17 0
e 18 19 0
a 20 21 0
e 22 23 0
3 8 -12 -6 4 0
15 -1 22 -18 -5 0
-8 22 6 0
14 -2 18 0
-9 11 -16 -20 0
9 -15 4 -23 -12 0
9 -12 13 -3 0
23 4 19 6 0
